NAME : traveling-santa-2018-prime-paths.31746.tour
COMMENT : Length = 31746
COMMENT : Found by LKH [Keld Helsgaun] Sun Jun 12 20:00:42 2022
TYPE : TOUR
DIMENSION : 100
TOUR_SECTION
1
14
64
88
78
71
13
84
45
52
75
73
34
63
59
72
9
55
91
20
29
43
83
27
50
35
74
2
37
38
39
85
53
8
56
95
58
18
65
68
80
92
86
36
5
48
54
44
16
60
90
47
51
62
11
96
100
67
6
69
28
7
22
42
93
24
3
98
82
70
10
17
77
26
33
79
57
89
66
94
40
49
23
99
32
46
87
4
21
25
30
81
97
41
12
15
76
61
31
19
-1
EOF
